id: 1234
name: ns1904248
group: miplib2010
method: 1

Gurobi 7.0.2 (linux64, Matlab) logging started Fri Apr 20 04:43:40 2018


Gurobi 7.0.2 (linux64) logging started Fri Apr 20 04:43:40 2018

Optimize a model with 149437 rows, 38458 columns and 377258 nonzeros
Coefficient statistics:
  Matrix range     [3e-01, 1e+02]
  Objective range  [1e+00, 1e+00]
  Bounds range     [1e+00, 1e+00]
  RHS range        [5e-02, 2e+02]
Presolve removed 3039 rows and 196 columns
Presolve time: 0.07s
Presolved: 146398 rows, 38262 columns, 371070 nonzeros

Iteration    Objective       Primal Inf.    Dual Inf.      Time
       0      handle free variables                          0s
   11296    1.9165718e-05   1.343095e+03   0.000000e+00      5s
   14476    2.2267075e-05   6.922706e+02   0.000000e+00     10s
   17232    2.2893951e-05   1.197352e+02   0.000000e+00     15s
   19988    2.3064392e-05   2.865617e+01   0.000000e+00     20s
   23168    2.3132788e-05   1.724280e-04   0.000000e+00     25s
   23392    0.0000000e+00   0.000000e+00   0.000000e+00     26s

Solved in 23392 iterations and 25.70 seconds
Optimal objective  0.000000000e+00
status: OPTIMAL
